c description: Random 3-CNF over 24 variables and 102 clauses
c generator: CNFgen (0.9.2)
c copyright: (C) 2012-2022 Massimo Lauria <massimo.lauria@uniroma1.it>
c url: https://massimolauria.net/cnfgen
c command line: cnfgen --output CNF_4.28/24_bit_102_447.cnf randkcnf 3 24 102
c
p cnf 24 102
4 6 -22 0
-3 -12 16 0
15 -17 24 0
6 -9 11 0
1 3 -20 0
-19 21 22 0
-1 3 4 0
-12 -15 22 0
7 15 -21 0
10 -12 -16 0
-9 -21 24 0
6 -20 22 0
1 -16 20 0
-9 -11 22 0
1 -9 19 0
3 13 22 0
1 8 16 0
4 5 12 0
-3 -5 -22 0
4 6 22 0
2 3 -7 0
6 14 -18 0
10 -20 -23 0
-3 -19 -23 0
-2 -14 19 0
1 10 11 0
5 6 -9 0
-3 -7 24 0
-5 -16 17 0
-4 6 -23 0
-6 -15 -19 0
-4 7 15 0
-5 -12 24 0
-17 21 24 0
4 -5 15 0
-2 4 -10 0
-1 8 -14 0
4 14 21 0
-11 -13 16 0
-10 -13 17 0
-15 20 24 0
-5 14 23 0
6 -11 21 0
-1 -3 15 0
-12 19 -24 0
-12 15 -16 0
-9 11 -20 0
4 7 -8 0
16 -22 -23 0
-16 20 24 0
-5 -13 19 0
-11 -12 -24 0
-9 20 21 0
-1 -2 -11 0
3 -7 17 0
7 17 -18 0
5 13 -17 0
-10 -16 -21 0
-5 14 -18 0
10 -15 -21 0
4 -9 -13 0
5 -9 -23 0
-12 -15 -21 0
-2 11 13 0
-1 20 21 0
-1 4 -18 0
-7 -12 -15 0
-14 15 -23 0
12 16 -18 0
-9 -15 -18 0
-13 -14 21 0
12 13 -16 0
-11 17 -20 0
9 16 -22 0
12 -15 19 0
-16 -19 23 0
-17 20 -23 0
-3 4 11 0
-10 -12 23 0
-10 -13 -19 0
-2 -10 14 0
2 -8 12 0
2 -12 17 0
-2 10 24 0
-6 -10 17 0
-10 -17 21 0
-1 10 19 0
-3 5 -9 0
-8 16 -21 0
-18 -21 24 0
-14 16 -22 0
-11 -17 -23 0
-4 7 -13 0
6 -13 17 0
-10 -21 -22 0
-6 -13 -16 0
6 13 -16 0
-2 -5 -18 0
-11 -13 21 0
-7 -12 19 0
-5 16 -17 0
6 8 -10 0
